p ocr 1234 1234 2967
1 1235
1 1238
2 1235
2 1236
3 1236
3 1237
4 1237
4 1238
4 1241
5 1238
5 1239
6 1239
6 1240
7 1240
7 1241
7 1244
8 1241
8 1242
9 1242
9 1243
10 1243
10 1244
10 1248
11 1244
11 1245
12 1245
12 1246
13 1246
13 1247
14 1247
14 1248
14 1252
15 1248
15 1249
16 1249
16 1250
17 1250
17 1251
18 1251
18 1252
18 1256
19 1252
19 1253
20 1253
20 1254
21 1254
21 1255
22 1255
22 1256
22 1260
23 1256
23 1257
24 1257
24 1258
25 1258
25 1259
26 1259
26 1260
26 1261
27 1260
27 1261
27 1265
28 1261
28 1262
29 1262
29 1263
30 1263
30 1264
31 1264
31 1265
31 1267
32 1265
32 1266
33 1266
33 1267
33 1271
34 1267
34 1268
35 1268
35 1269
36 1269
36 1270
37 1270
37 1271
37 1274
38 1271
38 1272
39 1272
39 1273
40 1273
40 1274
40 1276
41 1274
41 1275
42 1275
42 1276
42 1278
43 1276
43 1277
44 1277
44 1278
44 1280
45 1278
45 1279
46 1279
46 1280
46 1281
47 1280
47 1281
47 1285
48 1281
48 1282
49 1282
49 1283
50 1283
50 1284
51 1284
51 1285
51 1289
52 1285
52 1286
53 1286
53 1287
54 1287
54 1288
55 1288
55 1289
55 1293
56 1289
56 1290
57 1290
57 1291
58 1291
58 1292
59 1292
59 1293
59 1295
60 1293
60 1294
61 1294
61 1295
61 1296
62 1295
62 1296
62 1299
63 1296
63 1297
64 1297
64 1298
65 1298
65 1299
65 1303
66 1299
66 1300
67 1300
67 1301
68 1301
68 1302
69 1302
69 1303
69 1307
70 1303
70 1304
71 1304
71 1305
72 1305
72 1306
73 1306
73 1307
73 1308
74 1307
74 1308
74 1312
75 1308
75 1309
76 1309
76 1310
77 1310
77 1311
78 1311
78 1312
78 1315
79 1312
79 1313
80 1313
80 1314
81 1314
81 1315
81 1319
82 1315
82 1316
83 1316
83 1317
84 1317
84 1318
85 1318
85 1319
85 1321
86 1319
86 1320
87 1320
87 1321
87 1325
88 1321
88 1322
89 1322
89 1323
90 1323
90 1324
91 1324
91 1325
91 1327
92 1325
92 1326
93 1326
93 1327
93 1331
94 1327
94 1328
95 1328
95 1329
96 1329
96 1330
97 1330
97 1331
97 1334
98 1331
98 1332
99 1332
99 1333
100 1333
100 1334
100 1335
101 1334
101 1335
101 1337
102 1335
102 1336
103 1336
103 1337
103 1339
104 1337
104 1338
105 1338
105 1339
105 1343
106 1339
106 1340
107 1340
107 1341
108 1341
108 1342
109 1342
109 1343
109 1346
110 1343
110 1344
111 1344
111 1345
112 1345
112 1346
112 1348
113 1346
113 1347
114 1347
114 1348
114 1351
115 1348
115 1349
116 1349
116 1350
117 1350
117 1351
117 1355
118 1351
118 1352
119 1352
119 1353
120 1353
120 1354
121 1354
121 1355
121 1359
122 1355
122 1356
123 1356
123 1357
124 1357
124 1358
125 1358
125 1359
125 1363
126 1359
126 1360
127 1360
127 1361
128 1361
128 1362
129 1362
129 1363
129 1365
130 1363
130 1364
131 1364
131 1365
131 1368
132 1365
132 1366
133 1366
133 1367
134 1367
134 1368
134 1371
135 1368
135 1369
136 1369
136 1370
137 1370
137 1371
137 1373
138 1371
138 1372
139 1372
139 1373
139 1375
140 1373
140 1374
141 1374
141 1375
141 1377
142 1375
142 1376
143 1376
143 1377
143 1379
144 1377
144 1378
145 1378
145 1379
145 1382
146 1379
146 1380
147 1380
147 1381
148 1381
148 1382
148 1384
149 1382
149 1383
150 1383
150 1384
150 1388
151 1384
151 1385
152 1385
152 1386
153 1386
153 1387
154 1387
154 1388
154 1390
155 1388
155 1389
156 1389
156 1390
156 1392
157 1390
157 1391
158 1391
158 1392
158 1395
159 1392
159 1393
160 1393
160 1394
161 1394
161 1395
161 1397
162 1395
162 1396
163 1396
163 1397
163 1399
164 1397
164 1398
165 1398
165 1399
165 1401
166 1399
166 1400
167 1400
167 1401
167 1402
168 1401
168 1402
168 1405
169 1402
169 1403
170 1403
170 1404
171 1404
171 1405
171 1408
172 1405
172 1406
173 1406
173 1407
174 1407
174 1408
174 1409
175 1408
175 1409
175 1410
176 1409
176 1410
176 1413
177 1410
177 1411
178 1411
178 1412
179 1412
179 1413
179 1415
180 1413
180 1414
181 1414
181 1415
181 1418
182 1415
182 1416
183 1416
183 1417
184 1417
184 1418
184 1419
185 1418
185 1419
185 1420
186 1419
186 1420
186 1421
187 1420
187 1421
187 1422
188 1421
188 1422
188 1426
189 1422
189 1423
190 1423
190 1424
191 1424
191 1425
192 1425
192 1426
192 1427
193 1426
193 1427
193 1428
194 1427
194 1428
194 1429
195 1428
195 1429
195 1432
196 1429
196 1430
197 1430
197 1431
198 1431
198 1432
198 1434
199 1432
199 1433
200 1433
200 1434
200 1435
201 1434
201 1435
201 1436
202 1435
202 1436
202 1440
203 1436
203 1437
204 1437
204 1438
205 1438
205 1439
206 1439
206 1440
206 1441
207 1440
207 1441
207 1444
208 1441
208 1442
209 1442
209 1443
210 1443
210 1444
210 1445
211 1444
211 1445
211 1446
212 1445
212 1446
212 1449
213 1446
213 1447
214 1447
214 1448
215 1448
215 1449
215 1451
216 1449
216 1450
217 1450
217 1451
217 1453
218 1451
218 1452
219 1452
219 1453
219 1455
220 1453
220 1454
221 1454
221 1455
221 1458
222 1455
222 1456
223 1456
223 1457
224 1457
224 1458
224 1462
225 1458
225 1459
226 1459
226 1460
227 1460
227 1461
228 1461
228 1462
228 1463
229 1462
229 1463
229 1464
230 1463
230 1464
230 1467
231 1464
231 1465
232 1465
232 1466
233 1466
233 1467
233 1469
234 1467
234 1468
235 1468
235 1469
235 1473
236 1469
236 1470
237 1470
237 1471
238 1471
238 1472
239 1472
239 1473
239 1477
240 1473
240 1474
241 1474
241 1475
242 1475
242 1476
243 1476
243 1477
243 1480
244 1477
244 1478
245 1478
245 1479
246 1479
246 1480
246 1482
247 1480
247 1481
248 1481
248 1482
248 1483
249 1482
249 1483
249 1487
250 1483
250 1484
251 1484
251 1485
252 1485
252 1486
253 1486
253 1487
253 1488
254 1487
254 1488
254 1490
255 1488
255 1489
256 1489
256 1490
256 1492
257 1490
257 1491
258 1491
258 1492
258 1493
259 1492
259 1493
259 1494
260 1493
260 1494
260 1498
261 1494
261 1495
262 1495
262 1496
263 1496
263 1497
264 1497
264 1498
264 1499
265 1498
265 1499
265 1501
266 1499
266 1500
267 1500
267 1501
267 1504
268 1501
268 1502
269 1502
269 1503
270 1503
270 1504
270 1505
271 1504
271 1505
271 1506
272 1505
272 1506
272 1507
273 1506
273 1507
273 1508
274 1507
274 1508
274 1509
275 1508
275 1509
275 1513
276 1509
276 1510
277 1510
277 1511
278 1511
278 1512
279 1512
279 1513
279 1514
280 1513
280 1514
280 1516
281 1514
281 1515
282 1515
282 1516
282 1518
283 1516
283 1517
284 1517
284 1518
284 1520
285 1518
285 1519
286 1519
286 1520
286 1521
287 1520
287 1521
287 1525
288 1521
288 1522
289 1522
289 1523
290 1523
290 1524
291 1524
291 1525
291 1526
292 1525
292 1526
292 1530
293 1526
293 1527
294 1527
294 1528
295 1528
295 1529
296 1529
296 1530
296 1532
297 1530
297 1531
298 1531
298 1532
298 1535
299 1532
299 1533
300 1533
300 1534
301 1534
301 1535
301 1537
302 1535
302 1536
303 1536
303 1537
303 1540
304 1537
304 1538
305 1538
305 1539
306 1539
306 1540
306 1543
307 1540
307 1541
308 1541
308 1542
309 1542
309 1543
309 1545
310 1543
310 1544
311 1544
311 1545
311 1547
312 1545
312 1546
313 1546
313 1547
313 1548
314 1547
314 1548
314 1549
315 1548
315 1549
315 1552
316 1549
316 1550
317 1550
317 1551
318 1551
318 1552
318 1553
319 1552
319 1553
319 1556
320 1553
320 1554
321 1554
321 1555
322 1555
322 1556
322 1559
323 1556
323 1557
324 1557
324 1558
325 1558
325 1559
325 1563
326 1559
326 1560
327 1560
327 1561
328 1561
328 1562
329 1562
329 1563
329 1567
330 1563
330 1564
331 1564
331 1565
332 1565
332 1566
333 1566
333 1567
333 1569
334 1567
334 1568
335 1568
335 1569
335 1571
336 1569
336 1570
337 1570
337 1571
337 1573
338 1571
338 1572
339 1572
339 1573
339 1577
340 1573
340 1574
341 1574
341 1575
342 1575
342 1576
343 1576
343 1577
343 1580
344 1577
344 1578
345 1578
345 1579
346 1579
346 1580
346 1583
347 1580
347 1581
348 1581
348 1582
349 1582
349 1583
349 1584
350 1583
350 1584
350 1585
351 1584
351 1585
351 1587
352 1585
352 1586
353 1586
353 1587
353 1591
354 1587
354 1588
355 1588
355 1589
356 1589
356 1590
357 1590
357 1591
357 1595
358 1591
358 1592
359 1592
359 1593
360 1593
360 1594
361 1594
361 1595
361 1596
362 1595
362 1596
362 1597
363 1596
363 1597
363 1600
364 1597
364 1598
365 1598
365 1599
366 1599
366 1600
366 1603
367 1600
367 1601
368 1601
368 1602
369 1602
369 1603
369 1606
370 1603
370 1604
371 1604
371 1605
372 1605
372 1606
372 1607
373 1606
373 1607
373 1608
374 1607
374 1608
374 1609
375 1608
375 1609
375 1611
376 1609
376 1610
377 1610
377 1611
377 1613
378 1611
378 1612
379 1612
379 1613
379 1616
380 1613
380 1614
381 1614
381 1615
382 1615
382 1616
382 1620
383 1616
383 1617
384 1617
384 1618
385 1618
385 1619
386 1619
386 1620
386 1624
387 1620
387 1621
388 1621
388 1622
389 1622
389 1623
390 1623
390 1624
390 1628
391 1624
391 1625
392 1625
392 1626
393 1626
393 1627
394 1627
394 1628
394 1632
395 1628
395 1629
396 1629
396 1630
397 1630
397 1631
398 1631
398 1632
398 1635
399 1632
399 1633
400 1633
400 1634
401 1634
401 1635
401 1637
402 1635
402 1636
403 1636
403 1637
403 1639
404 1637
404 1638
405 1638
405 1639
405 1641
406 1639
406 1640
407 1640
407 1641
407 1642
408 1641
408 1642
408 1646
409 1642
409 1643
410 1643
410 1644
411 1644
411 1645
412 1645
412 1646
412 1648
413 1646
413 1647
414 1647
414 1648
414 1650
415 1648
415 1649
416 1649
416 1650
416 1652
417 1650
417 1651
418 1651
418 1652
418 1654
419 1652
419 1653
420 1653
420 1654
420 1655
421 1654
421 1655
421 1658
422 1655
422 1656
423 1656
423 1657
424 1657
424 1658
424 1659
425 1658
425 1659
425 1662
426 1659
426 1660
427 1660
427 1661
428 1661
428 1662
428 1664
429 1662
429 1663
430 1663
430 1664
430 1665
431 1664
431 1665
431 1669
432 1665
432 1666
433 1666
433 1667
434 1667
434 1668
435 1668
435 1669
435 1673
436 1669
436 1670
437 1670
437 1671
438 1671
438 1672
439 1672
439 1673
439 1677
440 1673
440 1674
441 1674
441 1675
442 1675
442 1676
443 1676
443 1677
443 1681
444 1677
444 1678
445 1678
445 1679
446 1679
446 1680
447 1680
447 1681
447 1683
448 1681
448 1682
449 1682
449 1683
449 1687
450 1683
450 1684
451 1684
451 1685
452 1685
452 1686
453 1686
453 1687
453 1691
454 1687
454 1688
455 1688
455 1689
456 1689
456 1690
457 1690
457 1691
457 1695
458 1691
458 1692
459 1692
459 1693
460 1693
460 1694
461 1694
461 1695
461 1699
462 1695
462 1696
463 1696
463 1697
464 1697
464 1698
465 1698
465 1699
465 1702
466 1699
466 1700
467 1700
467 1701
468 1701
468 1702
468 1705
469 1702
469 1703
470 1703
470 1704
471 1704
471 1705
471 1708
472 1705
472 1706
473 1706
473 1707
474 1707
474 1708
474 1711
475 1708
475 1709
476 1709
476 1710
477 1710
477 1711
477 1714
478 1711
478 1712
479 1712
479 1713
480 1713
480 1714
480 1718
481 1714
481 1715
482 1715
482 1716
483 1716
483 1717
484 1717
484 1718
484 1719
485 1718
485 1719
485 1722
486 1719
486 1720
487 1720
487 1721
488 1721
488 1722
488 1723
489 1722
489 1723
489 1726
490 1723
490 1724
491 1724
491 1725
492 1725
492 1726
492 1727
493 1726
493 1727
493 1728
494 1727
494 1728
494 1729
495 1728
495 1729
495 1733
496 1729
496 1730
497 1730
497 1731
498 1731
498 1732
499 1732
499 1733
499 1734
500 1733
500 1734
500 1737
501 1734
501 1735
502 1735
502 1736
503 1736
503 1737
503 1740
504 1737
504 1738
505 1738
505 1739
506 1739
506 1740
506 1744
507 1740
507 1741
508 1741
508 1742
509 1742
509 1743
510 1743
510 1744
510 1748
511 1744
511 1745
512 1745
512 1746
513 1746
513 1747
514 1747
514 1748
514 1752
515 1748
515 1749
516 1749
516 1750
517 1750
517 1751
518 1751
518 1752
518 1753
519 1752
519 1753
519 1757
520 1753
520 1754
521 1754
521 1755
522 1755
522 1756
523 1756
523 1757
523 1761
524 1757
524 1758
525 1758
525 1759
526 1759
526 1760
527 1760
527 1761
527 1763
528 1761
528 1762
529 1762
529 1763
529 1767
530 1763
530 1764
531 1764
531 1765
532 1765
532 1766
533 1766
533 1767
533 1770
534 1767
534 1768
535 1768
535 1769
536 1769
536 1770
536 1771
537 1770
537 1771
537 1772
538 1771
538 1772
538 1776
539 1772
539 1773
540 1773
540 1774
541 1774
541 1775
542 1775
542 1776
542 1779
543 1776
543 1777
544 1777
544 1778
545 1778
545 1779
545 1783
546 1779
546 1780
547 1780
547 1781
548 1781
548 1782
549 1782
549 1783
549 1784
550 1783
550 1784
550 1786
551 1784
551 1785
552 1785
552 1786
552 1787
553 1786
553 1787
553 1791
554 1787
554 1788
555 1788
555 1789
556 1789
556 1790
557 1790
557 1791
557 1792
558 1791
558 1792
558 1796
559 1792
559 1793
560 1793
560 1794
561 1794
561 1795
562 1795
562 1796
562 1797
563 1796
563 1797
563 1799
564 1797
564 1798
565 1798
565 1799
565 1802
566 1799
566 1800
567 1800
567 1801
568 1801
568 1802
568 1805
569 1802
569 1803
570 1803
570 1804
571 1804
571 1805
571 1809
572 1805
572 1806
573 1806
573 1807
574 1807
574 1808
575 1808
575 1809
575 1813
576 1809
576 1810
577 1810
577 1811
578 1811
578 1812
579 1812
579 1813
579 1815
580 1813
580 1814
581 1814
581 1815
581 1816
582 1815
582 1816
582 1817
583 1816
583 1817
583 1821
584 1817
584 1818
585 1818
585 1819
586 1819
586 1820
587 1820
587 1821
587 1823
588 1821
588 1822
589 1822
589 1823
589 1826
590 1823
590 1824
591 1824
591 1825
592 1825
592 1826
592 1830
593 1826
593 1827
594 1827
594 1828
595 1828
595 1829
596 1829
596 1830
596 1832
597 1830
597 1831
598 1831
598 1832
598 1836
599 1832
599 1833
600 1833
600 1834
601 1834
601 1835
602 1835
602 1836
602 1838
603 1836
603 1837
604 1837
604 1838
604 1839
605 1838
605 1839
605 1840
606 1839
606 1840
606 1841
607 1840
607 1841
607 1842
608 1841
608 1842
608 1844
609 1842
609 1843
610 1843
610 1844
610 1848
611 1844
611 1845
612 1845
612 1846
613 1846
613 1847
614 1847
614 1848
614 1852
615 1848
615 1849
616 1849
616 1850
617 1850
617 1851
618 1851
618 1852
618 1856
619 1852
619 1853
620 1853
620 1854
621 1854
621 1855
622 1855
622 1856
622 1858
623 1856
623 1857
624 1857
624 1858
624 1859
625 1858
625 1859
625 1861
626 1859
626 1860
627 1860
627 1861
627 1865
628 1861
628 1862
629 1862
629 1863
630 1863
630 1864
631 1864
631 1865
631 1869
632 1865
632 1866
633 1866
633 1867
634 1867
634 1868
635 1868
635 1869
635 1870
636 1869
636 1870
636 1873
637 1870
637 1871
638 1871
638 1872
639 1872
639 1873
639 1876
640 1873
640 1874
641 1874
641 1875
642 1875
642 1876
642 1877
643 1876
643 1877
643 1881
644 1877
644 1878
645 1878
645 1879
646 1879
646 1880
647 1880
647 1881
647 1885
648 1881
648 1882
649 1882
649 1883
650 1883
650 1884
651 1884
651 1885
651 1886
652 1885
652 1886
652 1889
653 1886
653 1887
654 1887
654 1888
655 1888
655 1889
655 1892
656 1889
656 1890
657 1890
657 1891
658 1891
658 1892
658 1895
659 1892
659 1893
660 1893
660 1894
661 1894
661 1895
661 1898
662 1895
662 1896
663 1896
663 1897
664 1897
664 1898
664 1900
665 1898
665 1899
666 1899
666 1900
666 1904
667 1900
667 1901
668 1901
668 1902
669 1902
669 1903
670 1903
670 1904
670 1907
671 1904
671 1905
672 1905
672 1906
673 1906
673 1907
673 1911
674 1907
674 1908
675 1908
675 1909
676 1909
676 1910
677 1910
677 1911
677 1913
678 1911
678 1912
679 1912
679 1913
679 1915
680 1913
680 1914
681 1914
681 1915
681 1918
682 1915
682 1916
683 1916
683 1917
684 1917
684 1918
684 1921
685 1918
685 1919
686 1919
686 1920
687 1920
687 1921
687 1923
688 1921
688 1922
689 1922
689 1923
689 1926
690 1923
690 1924
691 1924
691 1925
692 1925
692 1926
692 1927
693 1926
693 1927
693 1931
694 1927
694 1928
695 1928
695 1929
696 1929
696 1930
697 1930
697 1931
697 1933
698 1931
698 1932
699 1932
699 1933
699 1936
700 1933
700 1934
701 1934
701 1935
702 1935
702 1936
702 1937
703 1936
703 1937
703 1939
704 1937
704 1938
705 1938
705 1939
705 1941
706 1939
706 1940
707 1940
707 1941
707 1944
708 1941
708 1942
709 1942
709 1943
710 1943
710 1944
710 1948
711 1944
711 1945
712 1945
712 1946
713 1946
713 1947
714 1947
714 1948
714 1951
715 1948
715 1949
716 1949
716 1950
717 1950
717 1951
717 1952
718 1951
718 1952
718 1956
719 1952
719 1953
720 1953
720 1954
721 1954
721 1955
722 1955
722 1956
722 1958
723 1956
723 1957
724 1957
724 1958
724 1960
725 1958
725 1959
726 1959
726 1960
726 1961
727 1960
727 1961
727 1962
728 1961
728 1962
728 1964
729 1962
729 1963
730 1963
730 1964
730 1967
731 1964
731 1965
732 1965
732 1966
733 1966
733 1967
733 1969
734 1967
734 1968
735 1968
735 1969
735 1973
736 1969
736 1970
737 1970
737 1971
738 1971
738 1972
739 1972
739 1973
739 1974
740 1973
740 1974
740 1978
741 1974
741 1975
742 1975
742 1976
743 1976
743 1977
744 1977
744 1978
744 1979
745 1978
745 1979
745 1980
746 1979
746 1980
746 1983
747 1980
747 1981
748 1981
748 1982
749 1982
749 1983
749 1987
750 1983
750 1984
751 1984
751 1985
752 1985
752 1986
753 1986
753 1987
753 1988
754 1987
754 1988
754 1992
755 1988
755 1989
756 1989
756 1990
757 1990
757 1991
758 1991
758 1992
758 1995
759 1992
759 1993
760 1993
760 1994
761 1994
761 1995
761 1998
762 1995
762 1996
763 1996
763 1997
764 1997
764 1998
764 2001
765 1998
765 1999
766 1999
766 2000
767 2000
767 2001
767 2005
768 2001
768 2002
769 2002
769 2003
770 2003
770 2004
771 2004
771 2005
771 2006
772 2005
772 2006
772 2007
773 2006
773 2007
773 2009
774 2007
774 2008
775 2008
775 2009
775 2012
776 2009
776 2010
777 2010
777 2011
778 2011
778 2012
778 2016
779 2012
779 2013
780 2013
780 2014
781 2014
781 2015
782 2015
782 2016
782 2018
783 2016
783 2017
784 2017
784 2018
784 2021
785 2018
785 2019
786 2019
786 2020
787 2020
787 2021
787 2025
788 2021
788 2022
789 2022
789 2023
790 2023
790 2024
791 2024
791 2025
791 2028
792 2025
792 2026
793 2026
793 2027
794 2027
794 2028
794 2031
795 2028
795 2029
796 2029
796 2030
797 2030
797 2031
797 2034
798 2031
798 2032
799 2032
799 2033
800 2033
800 2034
800 2038
801 2034
801 2035
802 2035
802 2036
803 2036
803 2037
804 2037
804 2038
804 2042
805 2038
805 2039
806 2039
806 2040
807 2040
807 2041
808 2041
808 2042
808 2046
809 2042
809 2043
810 2043
810 2044
811 2044
811 2045
812 2045
812 2046
812 2049
813 2046
813 2047
814 2047
814 2048
815 2048
815 2049
815 2053
816 2049
816 2050
817 2050
817 2051
818 2051
818 2052
819 2052
819 2053
819 2055
820 2053
820 2054
821 2054
821 2055
821 2056
822 2055
822 2056
822 2058
823 2056
823 2057
824 2057
824 2058
824 2059
825 2058
825 2059
825 2061
826 2059
826 2060
827 2060
827 2061
827 2065
828 2061
828 2062
829 2062
829 2063
830 2063
830 2064
831 2064
831 2065
831 2068
832 2065
832 2066
833 2066
833 2067
834 2067
834 2068
834 2072
835 2068
835 2069
836 2069
836 2070
837 2070
837 2071
838 2071
838 2072
838 2076
839 2072
839 2073
840 2073
840 2074
841 2074
841 2075
842 2075
842 2076
842 2079
843 2076
843 2077
844 2077
844 2078
845 2078
845 2079
845 2080
846 2079
846 2080
846 2083
847 2080
847 2081
848 2081
848 2082
849 2082
849 2083
849 2084
850 2083
850 2084
850 2088
851 2084
851 2085
852 2085
852 2086
853 2086
853 2087
854 2087
854 2088
854 2090
855 2088
855 2089
856 2089
856 2090
856 2093
857 2090
857 2091
858 2091
858 2092
859 2092
859 2093
859 2096
860 2093
860 2094
861 2094
861 2095
862 2095
862 2096
862 2100
863 2096
863 2097
864 2097
864 2098
865 2098
865 2099
866 2099
866 2100
866 2102
867 2100
867 2101
868 2101
868 2102
868 2104
869 2102
869 2103
870 2103
870 2104
870 2106
871 2104
871 2105
872 2105
872 2106
872 2110
873 2106
873 2107
874 2107
874 2108
875 2108
875 2109
876 2109
876 2110
876 2111
877 2110
877 2111
877 2114
878 2111
878 2112
879 2112
879 2113
880 2113
880 2114
880 2115
881 2114
881 2115
881 2117
882 2115
882 2116
883 2116
883 2117
883 2121
884 2117
884 2118
885 2118
885 2119
886 2119
886 2120
887 2120
887 2121
887 2123
888 2121
888 2122
889 2122
889 2123
889 2126
890 2123
890 2124
891 2124
891 2125
892 2125
892 2126
892 2128
893 2126
893 2127
894 2127
894 2128
894 2132
895 2128
895 2129
896 2129
896 2130
897 2130
897 2131
898 2131
898 2132
898 2135
899 2132
899 2133
900 2133
900 2134
901 2134
901 2135
901 2136
902 2135
902 2136
902 2137
903 2136
903 2137
903 2141
904 2137
904 2138
905 2138
905 2139
906 2139
906 2140
907 2140
907 2141
907 2144
908 2141
908 2142
909 2142
909 2143
910 2143
910 2144
910 2145
911 2144
911 2145
911 2148
912 2145
912 2146
913 2146
913 2147
914 2147
914 2148
914 2149
915 2148
915 2149
915 2150
916 2149
916 2150
916 2154
917 2150
917 2151
918 2151
918 2152
919 2152
919 2153
920 2153
920 2154
920 2158
921 2154
921 2155
922 2155
922 2156
923 2156
923 2157
924 2157
924 2158
924 2160
925 2158
925 2159
926 2159
926 2160
926 2164
927 2160
927 2161
928 2161
928 2162
929 2162
929 2163
930 2163
930 2164
930 2165
931 2164
931 2165
931 2167
932 2165
932 2166
933 2166
933 2167
933 2168
934 2167
934 2168
934 2170
935 2168
935 2169
936 2169
936 2170
936 2174
937 2170
937 2171
938 2171
938 2172
939 2172
939 2173
940 2173
940 2174
940 2176
941 2174
941 2175
942 2175
942 2176
942 2177
943 2176
943 2177
943 2178
944 2177
944 2178
944 2179
945 2178
945 2179
945 2181
946 2179
946 2180
947 2180
947 2181
947 2183
948 2181
948 2182
949 2182
949 2183
949 2184
950 2183
950 2184
950 2185
951 2184
951 2185
951 2189
952 2185
952 2186
953 2186
953 2187
954 2187
954 2188
955 2188
955 2189
955 2193
956 2189
956 2190
957 2190
957 2191
958 2191
958 2192
959 2192
959 2193
959 2197
960 2193
960 2194
961 2194
961 2195
962 2195
962 2196
963 2196
963 2197
963 2201
964 2197
964 2198
965 2198
965 2199
966 2199
966 2200
967 2200
967 2201
967 2205
968 2201
968 2202
969 2202
969 2203
970 2203
970 2204
971 2204
971 2205
971 2209
972 2205
972 2206
973 2206
973 2207
974 2207
974 2208
975 2208
975 2209
975 2211
976 2209
976 2210
977 2210
977 2211
977 2214
978 2211
978 2212
979 2212
979 2213
980 2213
980 2214
980 2217
981 2214
981 2215
982 2215
982 2216
983 2216
983 2217
983 2220
984 2217
984 2218
985 2218
985 2219
986 2219
986 2220
986 2222
987 2220
987 2221
988 2221
988 2222
988 2223
989 2222
989 2223
989 2227
990 2223
990 2224
991 2224
991 2225
992 2225
992 2226
993 2226
993 2227
993 2228
994 2227
994 2228
994 2230
995 2228
995 2229
996 2229
996 2230
996 2234
997 2230
997 2231
998 2231
998 2232
999 2232
999 2233
1000 2233
1000 2234
1000 2236
1001 2234
1001 2235
1002 2235
1002 2236
1002 2237
1003 2236
1003 2237
1003 2240
1004 2237
1004 2238
1005 2238
1005 2239
1006 2239
1006 2240
1006 2241
1007 2240
1007 2241
1007 2245
1008 2241
1008 2242
1009 2242
1009 2243
1010 2243
1010 2244
1011 2244
1011 2245
1011 2249
1012 2245
1012 2246
1013 2246
1013 2247
1014 2247
1014 2248
1015 2248
1015 2249
1015 2250
1016 2249
1016 2250
1016 2251
1017 2250
1017 2251
1017 2255
1018 2251
1018 2252
1019 2252
1019 2253
1020 2253
1020 2254
1021 2254
1021 2255
1021 2257
1022 2255
1022 2256
1023 2256
1023 2257
1023 2258
1024 2257
1024 2258
1024 2262
1025 2258
1025 2259
1026 2259
1026 2260
1027 2260
1027 2261
1028 2261
1028 2262
1028 2263
1029 2262
1029 2263
1029 2266
1030 2263
1030 2264
1031 2264
1031 2265
1032 2265
1032 2266
1032 2270
1033 2266
1033 2267
1034 2267
1034 2268
1035 2268
1035 2269
1036 2269
1036 2270
1036 2272
1037 2270
1037 2271
1038 2271
1038 2272
1038 2275
1039 2272
1039 2273
1040 2273
1040 2274
1041 2274
1041 2275
1041 2277
1042 2275
1042 2276
1043 2276
1043 2277
1043 2279
1044 2277
1044 2278
1045 2278
1045 2279
1045 2280
1046 2279
1046 2280
1046 2281
1047 2280
1047 2281
1047 2283
1048 2281
1048 2282
1049 2282
1049 2283
1049 2287
1050 2283
1050 2284
1051 2284
1051 2285
1052 2285
1052 2286
1053 2286
1053 2287
1053 2288
1054 2287
1054 2288
1054 2290
1055 2288
1055 2289
1056 2289
1056 2290
1056 2291
1057 2290
1057 2291
1057 2295
1058 2291
1058 2292
1059 2292
1059 2293
1060 2293
1060 2294
1061 2294
1061 2295
1061 2297
1062 2295
1062 2296
1063 2296
1063 2297
1063 2299
1064 2297
1064 2298
1065 2298
1065 2299
1065 2302
1066 2299
1066 2300
1067 2300
1067 2301
1068 2301
1068 2302
1068 2303
1069 2302
1069 2303
1069 2307
1070 2303
1070 2304
1071 2304
1071 2305
1072 2305
1072 2306
1073 2306
1073 2307
1073 2310
1074 2307
1074 2308
1075 2308
1075 2309
1076 2309
1076 2310
1076 2314
1077 2310
1077 2311
1078 2311
1078 2312
1079 2312
1079 2313
1080 2313
1080 2314
1080 2316
1081 2314
1081 2315
1082 2315
1082 2316
1082 2318
1083 2316
1083 2317
1084 2317
1084 2318
1084 2321
1085 2318
1085 2319
1086 2319
1086 2320
1087 2320
1087 2321
1087 2323
1088 2321
1088 2322
1089 2322
1089 2323
1089 2324
1090 2323
1090 2324
1090 2327
1091 2324
1091 2325
1092 2325
1092 2326
1093 2326
1093 2327
1093 2331
1094 2327
1094 2328
1095 2328
1095 2329
1096 2329
1096 2330
1097 2330
1097 2331
1097 2333
1098 2331
1098 2332
1099 2332
1099 2333
1099 2336
1100 2333
1100 2334
1101 2334
1101 2335
1102 2335
1102 2336
1102 2337
1103 2336
1103 2337
1103 2339
1104 2337
1104 2338
1105 2338
1105 2339
1105 2341
1106 2339
1106 2340
1107 2340
1107 2341
1107 2344
1108 2341
1108 2342
1109 2342
1109 2343
1110 2343
1110 2344
1110 2346
1111 2344
1111 2345
1112 2345
1112 2346
1112 2348
1113 2346
1113 2347
1114 2347
1114 2348
1114 2349
1115 2348
1115 2349
1115 2350
1116 2349
1116 2350
1116 2352
1117 2350
1117 2351
1118 2351
1118 2352
1118 2355
1119 2352
1119 2353
1120 2353
1120 2354
1121 2354
1121 2355
1121 2356
1122 2355
1122 2356
1122 2357
1123 2356
1123 2357
1123 2360
1124 2357
1124 2358
1125 2358
1125 2359
1126 2359
1126 2360
1126 2362
1127 2360
1127 2361
1128 2361
1128 2362
1128 2363
1129 2362
1129 2363
1129 2364
1130 2363
1130 2364
1130 2366
1131 2364
1131 2365
1132 2365
1132 2366
1132 2370
1133 2366
1133 2367
1134 2367
1134 2368
1135 2368
1135 2369
1136 2369
1136 2370
1136 2372
1137 2370
1137 2371
1138 2371
1138 2372
1138 2373
1139 2372
1139 2373
1139 2376
1140 2373
1140 2374
1141 2374
1141 2375
1142 2375
1142 2376
1142 2377
1143 2376
1143 2377
1143 2380
1144 2377
1144 2378
1145 2378
1145 2379
1146 2379
1146 2380
1146 2381
1147 2380
1147 2381
1147 2383
1148 2381
1148 2382
1149 2382
1149 2383
1149 2385
1150 2383
1150 2384
1151 2384
1151 2385
1151 2387
1152 2385
1152 2386
1153 2386
1153 2387
1153 2388
1154 2387
1154 2388
1154 2391
1155 2388
1155 2389
1156 2389
1156 2390
1157 2390
1157 2391
1157 2393
1158 2391
1158 2392
1159 2392
1159 2393
1159 2396
1160 2393
1160 2394
1161 2394
1161 2395
1162 2395
1162 2396
1162 2398
1163 2396
1163 2397
1164 2397
1164 2398
1164 2399
1165 2398
1165 2399
1165 2403
1166 2399
1166 2400
1167 2400
1167 2401
1168 2401
1168 2402
1169 2402
1169 2403
1169 2407
1170 2403
1170 2404
1171 2404
1171 2405
1172 2405
1172 2406
1173 2406
1173 2407
1173 2411
1174 2407
1174 2408
1175 2408
1175 2409
1176 2409
1176 2410
1177 2410
1177 2411
1177 2412
1178 2411
1178 2412
1178 2414
1179 2412
1179 2413
1180 2413
1180 2414
1180 2417
1181 2414
1181 2415
1182 2415
1182 2416
1183 2416
1183 2417
1183 2419
1184 2417
1184 2418
1185 2418
1185 2419
1185 2423
1186 2419
1186 2420
1187 2420
1187 2421
1188 2421
1188 2422
1189 2422
1189 2423
1189 2427
1190 2423
1190 2424
1191 2424
1191 2425
1192 2425
1192 2426
1193 2426
1193 2427
1193 2430
1194 2427
1194 2428
1195 2428
1195 2429
1196 2429
1196 2430
1196 2434
1197 2430
1197 2431
1198 2431
1198 2432
1199 2432
1199 2433
1200 2433
1200 2434
1200 2438
1201 2434
1201 2435
1202 2435
1202 2436
1203 2436
1203 2437
1204 2437
1204 2438
1204 2440
1205 2438
1205 2439
1206 2439
1206 2440
1206 2441
1207 2440
1207 2441
1207 2444
1208 2441
1208 2442
1209 2442
1209 2443
1210 2443
1210 2444
1210 2447
1211 2444
1211 2445
1212 2445
1212 2446
1213 2446
1213 2447
1213 2451
1214 2447
1214 2448
1215 2448
1215 2449
1216 2449
1216 2450
1217 2450
1217 2451
1217 2452
1218 2451
1218 2452
1218 2453
1219 2452
1219 2453
1219 2456
1220 2453
1220 2454
1221 2454
1221 2455
1222 2455
1222 2456
1222 2457
1223 2456
1223 2457
1223 2458
1224 2457
1224 2458
1224 2461
1225 2458
1225 2459
1226 2459
1226 2460
1227 2460
1227 2461
1227 2462
1228 2461
1228 2462
1228 2464
1229 2462
1229 2463
1230 2463
1230 2464
1230 2466
1231 2464
1231 2465
1232 2465
1232 2466
1232 2468
1233 2466
1233 2467
1234 2467
1234 2468